70
743
5
55
98
35
6
2
0 3
0 4
0 10
0 13
0 21
0 22
0 24
0 26
0 33
0 35
0 36
0 41
0 45
0 48
0 49
0 54
0 56
0 59
0 60
0 61
0 68
0 69
1 5
1 6
1 11
1 12
1 13
1 16
1 19
1 21
1 22
1 36
1 42
1 43
1 44
1 50
1 54
1 57
1 60
1 62
1 67
2 11
2 13
2 15
2 16
2 19
2 23
2 25
2 31
2 32
2 33
2 34
2 36
2 38
2 39
2 41
2 44
2 46
2 49
2 52
2 55
2 58
2 68
3 5
3 8
3 9
3 21
3 25
3 29
3 30
3 32
3 33
3 34
3 35
3 41
3 42
3 58
3 62
3 67
4 6
4 11
4 15
4 16
4 17
4 19
4 22
4 24
4 32
4 33
4 36
4 45
4 47
4 55
4 56
4 57
4 58
4 59
4 61
4 63
4 66
4 69
5 8
5 11
5 15
5 17
5 18
5 30
5 33
5 34
5 39
5 42
5 43
5 46
5 51
5 52
5 54
5 56
5 58
5 63
5 66
5 68
6 8
6 14
6 19
6 27
6 30
6 32
6 34
6 39
6 40
6 41
6 42
6 45
6 46
6 52
6 53
6 54
6 55
6 61
6 62
6 63
6 65
6 66
7 10
7 12
7 13
7 16
7 19
7 20
7 22
7 23
7 25
7 33
7 34
7 35
7 37
7 46
7 54
7 57
7 63
7 69
8 9
8 10
8 12
8 16
8 22
8 26
8 27
8 39
8 40
8 41
8 44
8 58
8 65
8 67
9 16
9 17
9 20
9 22
9 26
9 29
9 34
9 35
9 37
9 38
9 46
9 47
9 48
9 49
9 53
9 59
9 66
9 67
10 11
10 15
10 20
10 23
10 24
10 25
10 29
10 32
10 34
10 39
10 40
10 42
10 47
10 52
10 58
10 60
10 66
11 26
11 29
11 32
11 38
11 39
11 41
11 42
11 44
11 45
11 47
11 48
11 49
11 50
11 52
11 55
11 61
11 64
11 66
11 67
12 18
12 22
12 23
12 26
12 29
12 35
12 38
12 39
12 43
12 51
12 54
12 58
12 59
12 64
13 14
13 16
13 19
13 21
13 22
13 26
13 29
13 30
13 32
13 37
13 43
13 47
13 48
13 55
13 57
13 58
13 59
13 62
13 63
13 67
14 15
14 17
14 22
14 23
14 24
14 26
14 27
14 39
14 40
14 55
14 57
14 61
14 63
14 65
14 69
15 17
15 19
15 21
15 22
15 24
15 28
15 32
15 39
15 40
15 46
15 47
15 52
15 57
15 61
15 62
15 63
15 64
15 65
16 18
16 24
16 25
16 26
16 28
16 29
16 33
16 36
16 40
16 41
16 44
16 47
16 48
16 52
16 54
16 58
16 68
17 18
17 23
17 25
17 28
17 31
17 32
17 33
17 36
17 40
17 44
17 48
17 49
17 53
17 59
17 61
17 62
17 66
17 68
18 21
18 35
18 37
18 42
18 43
18 45
18 46
18 50
18 56
18 58
18 60
18 62
19 21
19 23
19 24
19 25
19 28
19 29
19 30
19 31
19 34
19 43
19 46
19 50
19 52
19 53
19 54
19 56
19 58
19 67
19 69
20 21
20 24
20 28
20 30
20 34
20 37
20 48
20 51
20 55
20 57
20 58
20 60
20 61
20 64
20 65
21 24
21 28
21 30
21 31
21 36
21 37
21 38
21 40
21 42
21 43
21 48
21 49
21 50
21 51
21 55
21 58
21 59
21 61
21 63
21 69
22 24
22 29
22 33
22 35
22 36
22 45
22 47
22 49
22 53
22 58
22 60
22 62
22 67
22 69
23 25
23 30
23 33
23 34
23 40
23 44
23 48
23 50
23 53
23 55
23 58
23 64
23 66
23 68
23 69
24 26
24 27
24 29
24 34
24 41
24 44
24 45
24 52
24 53
24 65
24 67
24 68
25 26
25 31
25 32
25 34
25 36
25 38
25 39
25 44
25 48
25 49
25 50
25 51
25 53
25 56
25 62
25 63
26 30
26 31
26 38
26 40
26 41
26 45
26 47
26 53
26 54
26 56
26 57
26 60
26 66
27 31
27 32
27 38
27 39
27 44
27 53
27 54
27 55
27 64
27 67
28 29
28 31
28 35
28 40
28 41
28 44
28 46
28 53
28 55
28 60
28 62
28 64
29 32
29 34
29 38
29 46
29 48
29 51
29 54
29 58
29 59
29 60
29 63
30 31
30 32
30 36
30 40
30 43
30 47
30 54
30 55
30 57
30 61
30 64
30 67
31 35
31 38
31 44
31 49
31 56
31 58
31 59
31 66
31 69
32 33
32 38
32 52
32 60
32 61
32 62
32 64
33 34
33 35
33 36
33 37
33 47
33 50
33 52
33 54
33 64
33 67
33 68
34 37
34 38
34 40
34 41
34 43
34 44
34 45
34 47
34 53
34 64
34 66
34 67
35 41
35 44
35 48
35 49
35 50
35 55
35 58
35 61
35 66
35 67
35 69
36 37
36 39
36 40
36 41
36 42
36 43
36 55
36 57
36 59
36 60
36 61
37 39
37 42
37 47
37 51
37 52
37 54
37 65
38 39
38 41
38 47
38 49
38 57
38 63
38 65
38 68
39 40
39 52
39 62
39 67
39 68
40 41
40 45
40 47
40 49
40 50
40 51
40 52
40 53
40 56
40 57
40 61
40 63
40 66
40 67
40 69
41 46
41 47
41 50
41 53
41 55
41 56
41 62
41 66
41 68
41 69
42 47
42 48
42 50
42 54
42 57
42 59
42 61
42 63
43 44
43 51
43 56
43 57
43 59
43 61
43 62
43 63
43 65
43 69
44 46
44 49
44 53
44 55
44 56
44 59
44 61
44 68
44 69
45 46
45 53
45 59
45 62
45 63
45 65
46 47
46 48
46 53
46 56
46 60
46 62
46 63
46 65
46 68
47 49
47 56
47 57
47 62
47 69
48 49
48 52
48 53
48 54
48 55
48 56
48 61
49 50
49 51
49 54
49 59
49 62
49 66
49 67
50 51
50 52
50 56
50 64
50 65
51 52
51 55
51 56
51 58
51 61
51 62
51 67
52 53
52 54
52 57
52 61
52 66
53 55
53 56
53 57
53 59
53 60
53 63
53 67
53 69
54 57
54 59
54 60
54 67
54 69
55 56
55 58
55 59
55 62
55 66
55 67
55 68
55 69
56 58
56 63
56 65
56 67
57 58
57 59
57 68
58 60
58 62
58 65
59 68
60 63
60 65
60 66
60 67
61 66
61 67
63 66
64 65
64 66
64 68
65 67
65 68
66 68
67 68
68 69
48 37 38 5 3 16 12 68 40 26 2 33 27 11
7 28 42 60 55 50 1 62 64 14 24 36 6 66
34 52 51 4 22 41 69 49 21 15 35 61 10 32
54 59 19 65 20 43 23 47 45 18 39 17 9 29
53 58 0 57 44 63 8 67 13 46 30 25 56 31
